* ENCODING=ISO-8859-1
NAME          CPLEX
ROWS
 N  obj1    
 G  c1      
 G  c2      
 G  c3      
 G  c4      
 G  c5      
 G  c6      
 G  c7      
 G  c8      
 G  c9      
 G  c10     
 G  c11     
 G  c12     
 G  c13     
 G  c14     
 G  c15     
 G  c16     
 G  c17     
 G  c18     
 G  c19     
 G  c20     
 G  c21     
 G  c22     
 G  c23     
 G  c24     
 G  c25     
 G  c26     
 G  c27     
 G  c28     
 G  c29     
 G  c30     
 G  c31     
 G  c32     
 G  c33     
 G  c34     
 G  c35     
 G  c36     
 G  c37     
 G  c38     
 G  c39     
 G  c40     
 G  c41     
 G  c42     
 G  c43     
 G  c44     
 G  c45     
 G  c46     
 G  c47     
 G  c48     
 G  c49     
 G  c50     
 G  c51     
 G  c52     
 G  c53     
 G  c54     
 G  c55     
 G  c56     
 G  c57     
 G  c58     
 G  c59     
 G  c60     
 G  c61     
 G  c62     
 G  c63     
 G  c64     
 G  c65     
 G  c66     
 G  c67     
 G  c68     
 G  c69     
 G  c70     
COLUMNS
    MARK0000  'MARKER'                 'INTORG'
    x1        obj1                            1
    x1        c28                           661
    x1        c37                           211
    x1        c61                           993
    x2        obj1                            1
    x2        c10                           707
    x2        c24                           871
    x2        c25                           437
    x2        c28                           591
    x2        c49                           420
    x2        c56                           309
    x2        c66                           255
    x3        obj1                            1
    x3        c21                           537
    x3        c34                           382
    x3        c35                           970
    x3        c56                           697
    x3        c58                           687
    x3        c59                           993
    x3        c68                           700
    x4        obj1                            1
    x4        c5                            301
    x4        c16                           586
    x4        c34                           132
    x4        c47                           720
    x4        c55                           386
    x4        c65                           266
    x5        obj1                            1
    x5        c7                            576
    x5        c9                            219
    x5        c16                           172
    x5        c26                           338
    x5        c27                           559
    x5        c32                           464
    x5        c38                           105
    x5        c52                           466
    x5        c54                           702
    x5        c66                           684
    x5        c70                           735
    x6        obj1                            1
    x6        c17                           575
    x6        c23                           448
    x6        c43                           440
    x6        c48                           489
    x6        c53                           358
    x7        obj1                            1
    x7        c15                           103
    x7        c21                           245
    x7        c37                           750
    x7        c46                           342
    x7        c48                           729
    x7        c49                           591
    x8        obj1                            1
    x8        c5                            294
    x8        c33                           911
    x8        c40                           486
    x8        c44                           699
    x8        c46                           342
    x8        c61                           117
    x8        c70                           244
    x9        obj1                            1
    x9        c11                           584
    x9        c32                           721
    x9        c33                           647
    x9        c38                           811
    x9        c43                           308
    x9        c48                           605
    x9        c52                           382
    x9        c54                           959
    x9        c55                           560
    x9        c58                           225
    x9        c67                           463
    x9        c68                           862
    x10       obj1                            1
    x10       c5                            908
    x10       c11                           857
    x10       c12                           716
    x10       c17                           598
    x10       c20                           902
    x10       c41                           123
    x10       c70                           906
    x11       obj1                            1
    x11       c1                            516
    x11       c4                            421
    x11       c6                            342
    x11       c8                            215
    x11       c12                           341
    x11       c14                           360
    x11       c44                           114
    x11       c48                           160
    x11       c49                           389
    x11       c56                           758
    x12       obj1                            1
    x12       c2                            765
    x12       c4                            759
    x12       c14                           782
    x12       c26                           395
    x12       c43                           284
    x12       c50                           869
    x12       c69                           104
    x13       obj1                            1
    x13       c10                           322
    x13       c13                           427
    x13       c20                           347
    x13       c51                           865
    x13       c54                           614
    x13       c61                           409
    x13       c62                           548
    x14       obj1                            1
    x14       c24                           930
    x14       c48                           844
    x14       c60                           152
    x14       c63                           374
    x14       c66                           271
    x15       obj1                            1
    x15       c20                           163
    x15       c25                           201
    x15       c66                           811
    x16       obj1                            1
    x16       c5                            502
    x16       c24                           633
    x16       c25                           227
    x16       c28                           477
    x16       c31                           894
    x16       c32                           598
    x16       c33                           947
    x16       c61                           554
    x16       c70                           333
    x17       obj1                            1
    x17       c11                           793
    x17       c12                           705
    x17       c15                           699
    x17       c18                           708
    x17       c19                           266
    x17       c21                           364
    x17       c33                           970
    x17       c39                           315
    x17       c63                           118
    x18       obj1                            1
    x18       c6                            759
    x18       c42                           738
    x18       c67                           911
    x19       obj1                            1
    x19       c2                            773
    x19       c17                           625
    x19       c36                           449
    x19       c45                           542
    x19       c62                           277
    x19       c63                           821
    x19       c65                           188
    x20       obj1                            1
    x20       c7                            277
    x20       c15                           997
    x20       c19                           569
    x20       c30                           671
    x20       c41                           759
    x20       c62                           911
    x21       obj1                            1
    x21       c11                           852
    x21       c21                           166
    x21       c54                           940
    x21       c55                           307
    x21       c62                           784
    x22       obj1                            1
    x22       c2                            104
    x22       c14                           582
    x22       c28                           621
    x22       c30                           899
    x22       c56                           886
    x23       obj1                            1
    x23       c38                           785
    x23       c40                           590
    x23       c50                           501
    x23       c51                           122
    x23       c60                           117
    x23       c66                           350
    x23       c70                           929
    x24       obj1                            1
    x24       c25                           166
    x24       c37                           869
    x24       c38                           411
    x24       c39                           896
    x24       c44                           121
    x24       c51                           522
    x24       c53                           541
    x24       c58                           993
    x25       obj1                            1
    x25       c6                            935
    x25       c22                           397
    x25       c28                           564
    x25       c30                           321
    x25       c36                           234
    x25       c37                           738
    x25       c39                           495
    x25       c56                           396
    x25       c62                           599
    x26       obj1                            1
    x26       c2                            302
    x26       c28                           438
    x26       c29                           278
    x26       c30                           146
    x26       c53                           241
    x26       c65                           451
    x27       obj1                            1
    x27       c15                           870
    x27       c18                           844
    x27       c20                           800
    x27       c21                           808
    x27       c27                           966
    x27       c34                           774
    x27       c50                           138
    x28       obj1                            1
    x28       c2                            670
    x28       c3                            729
    x28       c24                           670
    x28       c28                           132
    x28       c39                           497
    x28       c52                           419
    x28       c57                           253
    x28       c61                           968
    x28       c65                           862
    x29       obj1                            1
    x29       c21                           539
    x29       c24                           459
    x29       c39                           735
    x29       c68                           397
    x29       c70                           817
    x30       obj1                            1
    x30       c1                            743
    x30       c46                           288
    x30       c68                           469
    x31       obj1                            1
    x31       c2                            592
    x31       c11                           217
    x31       c12                           737
    x31       c40                           630
    x31       c59                           818
    x31       c60                           400
    x31       c69                           609
    x32       obj1                            1
    x32       c2                            851
    x32       c14                           526
    x32       c16                           181
    x32       c25                           659
    x32       c28                           566
    x32       c30                           625
    x32       c40                           163
    x33       obj1                            1
    x33       c8                            969
    x33       c22                           257
    x33       c35                           582
    x33       c38                           738
    x33       c47                           518
    x33       c63                           333
    x33       c69                           143
    x34       obj1                            1
    x34       c15                           289
    x34       c16                           605
    x34       c20                           824
    x34       c32                           158
    x34       c35                           180
    x34       c42                           827
    x34       c43                           621
    x34       c44                           449
    x34       c45                           865
    x34       c46                           924
    x35       obj1                            1
    x35       c11                           506
    x35       c18                           177
    x35       c50                           422
    x35       c52                           473
    x35       c63                           826
    x35       c64                           983
    x36       obj1                            1
    x36       c10                           294
    x36       c11                           197
    x36       c14                           485
    x36       c27                           902
    x36       c34                           259
    x36       c56                           675
    x36       c59                           881
    x36       c63                           499
    x37       obj1                            1
    x37       c1                            537
    x37       c8                            691
    x37       c10                           608
    x37       c11                           243
    x37       c32                           705
    x37       c59                           164
    x38       obj1                            1
    x38       c1                            951
    x38       c10                           663
    x38       c21                           738
    x38       c29                           459
    x38       c38                           648
    x38       c50                           285
    x38       c70                           287
    x39       obj1                            1
    x39       c4                            456
    x39       c22                           244
    x39       c42                           206
    x39       c68                           186
    x40       obj1                            1
    x40       c16                           221
    x40       c20                           969
    x40       c45                           622
    x40       c50                           673
    x40       c56                           938
    x40       c60                           160
    x41       obj1                            1
    x41       c20                           822
    x41       c24                           139
    x41       c29                           871
    x41       c36                           163
    x41       c39                           155
    x41       c61                           769
    x42       obj1                            1
    x42       c1                            157
    x42       c16                           698
    x42       c40                           654
    x42       c46                           852
    x42       c62                           197
    x42       c63                           654
    x42       c69                           530
    x43       obj1                            1
    x43       c9                            130
    x43       c35                           727
    x43       c69                           940
    x44       obj1                            1
    x44       c9                            842
    x44       c19                           651
    x44       c27                           912
    x44       c37                           468
    x44       c43                           756
    x44       c46                           539
    x44       c47                           788
    x44       c60                           235
    x45       obj1                            1
    x45       c16                           317
    x45       c36                           483
    x45       c53                           766
    x45       c69                           467
    x46       obj1                            1
    x46       c7                            962
    x46       c49                           514
    x46       c52                           135
    x46       c64                           451
    x46       c68                           829
    x47       obj1                            1
    x47       c40                           746
    x47       c45                           491
    x47       c62                           344
    x47       c63                           436
    x47       c64                           873
    x48       obj1                            1
    x48       c23                           471
    x48       c31                           477
    x48       c32                           719
    x48       c34                           450
    x48       c39                           262
    x48       c41                           827
    x48       c43                           401
    x48       c53                           758
    x48       c57                           304
    x49       obj1                            1
    x49       c3                            702
    x49       c47                           507
    x50       obj1                            1
    x50       c2                            479
    x50       c8                            170
    x50       c30                           533
    x50       c36                           629
    x50       c38                           339
    x50       c39                           335
    x50       c42                           201
    x50       c49                           550
    x50       c50                           346
    x50       c63                           264
    x50       c66                           479
    x50       c67                           336
    x51       obj1                            1
    x51       c13                           806
    x51       c22                           478
    x51       c23                           504
    x51       c26                           598
    x51       c33                           626
    x51       c35                           990
    x51       c37                           293
    x51       c55                           250
    x52       obj1                            1
    x52       c5                            447
    x52       c13                           797
    x52       c23                           481
    x52       c24                           426
    x52       c25                           993
    x52       c49                           278
    x52       c55                           617
    x52       c58                           421
    x53       obj1                            1
    x53       c4                            636
    x53       c17                           622
    x53       c20                           312
    x53       c41                           552
    x53       c45                           350
    x53       c55                           586
    x54       obj1                            1
    x54       c6                            285
    x54       c7                            258
    x54       c13                           667
    x54       c14                           828
    x54       c15                           623
    x54       c42                           293
    x54       c61                           779
    x54       c62                           131
    x54       c66                           566
    x54       c67                           157
    x55       obj1                            1
    x55       c1                            342
    x55       c14                           285
    x55       c20                           682
    x55       c38                           861
    x55       c42                           228
    x55       c54                           405
    x55       c67                           441
    x56       obj1                            1
    x56       c8                            919
    x56       c9                            525
    x56       c19                           220
    x56       c23                           334
    x56       c39                           495
    x56       c40                           959
    x57       obj1                            1
    x57       c2                            278
    x57       c14                           536
    x57       c21                           901
    x57       c35                           877
    x57       c37                           154
    x57       c44                           486
    x57       c53                           612
    x58       obj1                            1
    x58       c25                           976
    x58       c29                           404
    x58       c36                           243
    x58       c68                           489
    x59       obj1                            1
    x59       c9                            830
    x59       c11                           247
    x59       c21                           982
    x59       c25                           519
    x59       c27                           301
    x59       c41                           119
    x59       c52                           494
    x59       c53                           698
    x59       c67                           987
    x60       obj1                            1
    x60       c20                           518
    x60       c31                           319
    x60       c39                           151
    x60       c47                           754
    x60       c49                           869
    x60       c51                           974
    x60       c54                           912
    x60       c68                           663
    x61       obj1                            1
    x61       c5                            634
    x61       c8                            471
    x61       c14                           862
    x61       c28                           414
    x61       c33                           857
    x61       c41                           946
    x61       c57                           876
    x62       obj1                            1
    x62       c4                            944
    x62       c7                            486
    x62       c21                           231
    x62       c34                           224
    x62       c44                           910
    x63       obj1                            1
    x63       c3                            402
    x63       c6                            670
    x63       c11                           424
    x63       c55                           913
    x63       c57                           393
    x63       c64                           351
    x64       obj1                            1
    x64       c2                            519
    x64       c5                            730
    x64       c14                           875
    x64       c25                           977
    x64       c31                           375
    x64       c40                           240
    x64       c45                           905
    x64       c46                           361
    x64       c51                           573
    x64       c66                           713
    x64       c67                           469
    x65       obj1                            1
    x65       c15                           658
    x65       c62                           275
    x65       c70                           900
    x66       obj1                            1
    x66       c36                           265
    x66       c37                           881
    x66       c69                           964
    x67       obj1                            1
    x67       c30                           727
    x67       c31                           585
    x67       c46                           364
    x68       obj1                            1
    x68       c10                           348
    x68       c24                           692
    x68       c27                           614
    x68       c61                           372
    x69       obj1                            1
    x69       c7                            790
    x69       c18                           871
    x69       c23                           510
    x69       c26                           522
    x69       c37                           390
    x69       c41                           700
    x69       c45                           250
    x69       c51                           447
    x69       c57                           381
    x69       c59                           441
    x70       obj1                            1
    x70       c3                            431
    x70       c4                            607
    x70       c6                            577
    x70       c7                            355
    x70       c13                           443
    x70       c41                           545
    x70       c45                           377
    MARK0001  'MARKER'                 'INTEND'
RHS
    rhs       c1                           1623
    rhs       c2                           2667
    rhs       c3                           1132
    rhs       c4                           1912
    rhs       c5                           1908
    rhs       c6                           1784
    rhs       c7                           1852
    rhs       c8                           1718
    rhs       c9                           1273
    rhs       c10                          1471
    rhs       c11                          2460
    rhs       c12                          1250
    rhs       c13                          1570
    rhs       c14                          3061
    rhs       c15                          2120
    rhs       c16                          1390
    rhs       c17                          1210
    rhs       c18                          1300
    rhs       c19                           853
    rhs       c20                          3170
    rhs       c21                          2756
    rhs       c22                           688
    rhs       c23                          1374
    rhs       c24                          2410
    rhs       c25                          2578
    rhs       c26                           927
    rhs       c27                          2127
    rhs       c28                          2232
    rhs       c29                          1006
    rhs       c30                          1961
    rhs       c31                          1325
    rhs       c32                          1683
    rhs       c33                          2479
    rhs       c34                          1111
    rhs       c35                          2163
    rhs       c36                          1233
    rhs       c37                          2377
    rhs       c38                          2349
    rhs       c39                          2168
    rhs       c40                          2234
    rhs       c41                          2286
    rhs       c42                          1247
    rhs       c43                          1405
    rhs       c44                          1390
    rhs       c45                          2201
    rhs       c46                          2006
    rhs       c47                          1644
    rhs       c48                          1414
    rhs       c49                          1806
    rhs       c50                          1617
    rhs       c51                          1752
    rhs       c52                          1185
    rhs       c53                          1987
    rhs       c54                          2266
    rhs       c55                          1810
    rhs       c56                          2330
    rhs       c57                          1104
    rhs       c58                          1163
    rhs       c59                          1649
    rhs       c60                           532
    rhs       c61                          2481
    rhs       c62                          2033
    rhs       c63                          2163
    rhs       c64                          1329
    rhs       c65                           884
    rhs       c66                          2065
    rhs       c67                          1882
    rhs       c68                          2298
    rhs       c69                          1879
    rhs       c70                          2576
BOUNDS
 LI bnd       x1        0
 LI bnd       x2        0
 LI bnd       x3        0
 LI bnd       x4        0
 LI bnd       x5        0
 LI bnd       x6        0
 LI bnd       x7        0
 LI bnd       x8        0
 LI bnd       x9        0
 LI bnd       x10       0
 LI bnd       x11       0
 LI bnd       x12       0
 LI bnd       x13       0
 LI bnd       x14       0
 LI bnd       x15       0
 LI bnd       x16       0
 LI bnd       x17       0
 LI bnd       x18       0
 LI bnd       x19       0
 LI bnd       x20       0
 LI bnd       x21       0
 LI bnd       x22       0
 LI bnd       x23       0
 LI bnd       x24       0
 LI bnd       x25       0
 LI bnd       x26       0
 LI bnd       x27       0
 LI bnd       x28       0
 LI bnd       x29       0
 LI bnd       x30       0
 LI bnd       x31       0
 LI bnd       x32       0
 LI bnd       x33       0
 LI bnd       x34       0
 LI bnd       x35       0
 LI bnd       x36       0
 LI bnd       x37       0
 LI bnd       x38       0
 LI bnd       x39       0
 LI bnd       x40       0
 LI bnd       x41       0
 LI bnd       x42       0
 LI bnd       x43       0
 LI bnd       x44       0
 LI bnd       x45       0
 LI bnd       x46       0
 LI bnd       x47       0
 LI bnd       x48       0
 LI bnd       x49       0
 LI bnd       x50       0
 LI bnd       x51       0
 LI bnd       x52       0
 LI bnd       x53       0
 LI bnd       x54       0
 LI bnd       x55       0
 LI bnd       x56       0
 LI bnd       x57       0
 LI bnd       x58       0
 LI bnd       x59       0
 LI bnd       x60       0
 LI bnd       x61       0
 LI bnd       x62       0
 LI bnd       x63       0
 LI bnd       x64       0
 LI bnd       x65       0
 LI bnd       x66       0
 LI bnd       x67       0
 LI bnd       x68       0
 LI bnd       x69       0
 LI bnd       x70       0
ENDATA
